(set-info :smt-lib-version 2.6)
(set-logic QF_S)
(set-info :source |
Generated by: Murphy Berzish, Mitja Kulczynski, Federico Mora, Florin Manea, Joel Day, Dirk Nowotka, Vijay Ganesh, Zhengyang Lu
Generated on: 2020-10-01
Description: Translated from a collection of real-world regex queries, AutomataArk, collected by Loris D’Antoni and Fang Wang: https://github.com/lorisdanto/automatark
Application: Evaluate solvers on real-world regex queries
Target solver: Z3str3RE, CVC4, OSTRICH, Z3seq, Z3str3, Z3-Trau
Publications: Berzish, M., Kulczynski, M., Mora, F., Manea, F., Day, J. D., Nowotka, D., & Ganesh, V. (2021, July). An SMT solver for regular expressions and linear arithmetic over string length. In CAV 2021.
|)
(set-info :license "https://creativecommons.org/licenses/by/4.0/")
(set-info :category "industrial")
(set-info :status unsat)

(declare-const X String)
(assert (str.in_re X (str.to_re "SystemSleuth\u{13}1.0versionHost:ArrowHost:3Awebsearch.drsnsrch.com\u{13}hostieiWonHost:pjpoptwql/rlnj\u{a}")))
(assert (str.in_re X (re.++ (str.to_re "User-Agent:") (re.union (str.to_re " ") (str.to_re "\u{9}") (str.to_re "\u{a}") (str.to_re "\u{c}") (str.to_re "\u{d}")) (str.to_re "offers.bullseye-network.com") (re.+ (re.range "0" "9")) (str.to_re "FTPsearch.dropspam.com\u{a}"))))
(assert (not (str.in_re X (re.++ (re.union (re.* (str.to_re "0")) (re.* (re.union (str.to_re "1") (re.++ (re.union (str.to_re "2") (re.++ (re.union (str.to_re "3") (re.++ (re.union (str.to_re "4") (str.to_re "50")) (str.to_re "0"))) (str.to_re "0"))) (str.to_re "0")))) (re.* (re.++ (str.to_re "0") (re.* (str.to_re "1")) (re.union (str.to_re "2") (re.++ (re.union (str.to_re "3") (re.++ (re.union (str.to_re "4") (str.to_re "50")) (str.to_re "0"))) (str.to_re "0"))))) (re.* (re.++ (str.to_re "00") (re.* (re.union (str.to_re "1") (str.to_re "20"))) (re.union (str.to_re "3") (re.++ (re.union (str.to_re "4") (str.to_re "50")) (str.to_re "0"))))) (re.* (re.++ (str.to_re "000") (re.* (re.union (str.to_re "1") (re.++ (re.union (str.to_re "2") (str.to_re "30")) (str.to_re "0")))) (re.union (str.to_re "4") (str.to_re "50")))) (re.* (re.++ (str.to_re "0000") (re.* (re.union (str.to_re "1") (re.++ (re.union (str.to_re "2") (re.++ (re.union (str.to_re "3") (str.to_re "40")) (str.to_re "0"))) (str.to_re "0")))) (str.to_re "5"))) (re.* (re.union (str.to_re "2") (re.++ (re.union (re.++ (str.to_re "5") (re.union (str.to_re "3") (str.to_re "50")) (str.to_re "0")) (re.++ (re.union (str.to_re "4") (str.to_re "51")) (re.union (str.to_re "2") (str.to_re "40")))) (str.to_re "0")) (re.++ (re.union (str.to_re "3") (re.++ (re.union (str.to_re "4") (str.to_re "51")) (str.to_re "1")) (re.++ (re.union (str.to_re "52") (re.++ (re.union (str.to_re "4") (str.to_re "51")) (str.to_re "50"))) (str.to_re "0"))) (re.* (re.union (str.to_re "501") (re.++ (re.union (str.to_re "4") (str.to_re "5050")) (str.to_re "0")))) (re.union (str.to_re "1") (re.++ (re.union (str.to_re "3") (re.++ (str.to_re "50") (re.union (str.to_re "2") (str.to_re "40")))) (str.to_re "0")))))) (re.* (re.union (str.to_re "501") (re.++ (re.union (str.to_re "4") (str.to_re "5050")) (str.to_re "0")) (re.++ (re.union (str.to_re "1") (re.++ (re.union (str.to_re "3") (re.++ (str.to_re "50") (re.union (str.to_re "2") (str.to_re "40")))) (str.to_re "0"))) (re.* (re.union (str.to_re "2") (re.++ (re.union (re.++ (str.to_re "5") (re.union (str.to_re "3") (str.to_re "50")) (str.to_re "0")) (re.++ (re.union (str.to_re "4") (str.to_re "51")) (re.union (str.to_re "2") (str.to_re "40")))) (str.to_re "0")))) (re.union (str.to_re "3") (re.++ (re.union (str.to_re "4") (str.to_re "51")) (str.to_re "1")) (re.++ (re.union (str.to_re "52") (re.++ (re.union (str.to_re "4") (str.to_re "51")) (str.to_re "50"))) (str.to_re "0")))))) (re.* (re.++ (str.to_re "0") (re.* (re.union (str.to_re "2") (re.++ (re.union (str.to_re "3") (re.++ (re.union (str.to_re "4") (str.to_re "51")) (str.to_re "1")) (re.++ (re.union (str.to_re "52") (re.++ (re.union (str.to_re "4") (str.to_re "51")) (str.to_re "50"))) (str.to_re "0"))) (re.* (re.union (str.to_re "501") (re.++ (re.union (str.to_re "4") (str.to_re "5050")) (str.to_re "0")))) (str.to_re "1")))) (re.union (re.++ (str.to_re "5") (re.union (str.to_re "3") (str.to_re "50")) (str.to_re "0")) (re.++ (re.union (str.to_re "4") (str.to_re "51")) (re.union (str.to_re "2") (str.to_re "40"))) (re.++ (re.union (str.to_re "3") (re.++ (re.union (str.to_re "4") (str.to_re "51")) (str.to_re "1")) (re.++ (re.union (str.to_re "52") (re.++ (re.union (str.to_re "4") (str.to_re "51")) (str.to_re "50"))) (str.to_re "0"))) (re.* (re.union (str.to_re "501") (re.++ (re.union (str.to_re "4") (str.to_re "5050")) (str.to_re "0")))) (re.union (str.to_re "3") (re.++ (str.to_re "50") (re.union (str.to_re "2") (str.to_re "40")))))))) (re.* (re.++ (str.to_re "0") (re.union (re.++ (re.* (str.to_re "501")) (re.union (str.to_re "4") (str.to_re "5050"))) (re.++ (re.* (str.to_re "501")) (re.union (str.to_re "1") (re.++ (re.union (str.to_re "3") (re.++ (str.to_re "50") (re.union (str.to_re "2") (str.to_re "40")))) (str.to_re "0"))) (re.* (re.union (str.to_re "2") (re.++ (re.union (re.++ (str.to_re "5") (re.union (str.to_re "3") (str.to_re "50")) (str.to_re "0")) (re.++ (re.union (str.to_re "4") (str.to_re "51")) (re.union (str.to_re "2") (str.to_re "40")))) (str.to_re "0")) (re.++ (re.union (str.to_re "3") (re.++ (re.union (str.to_re "4") (str.to_re "51")) (str.to_re "1"))) (re.* (str.to_re "501")) (re.union (str.to_re "1") (re.++ (re.union (str.to_re "3") (re.++ (str.to_re "50") (re.union (str.to_re "2") (str.to_re "40")))) (str.to_re "0")))))) (re.union (str.to_re "52") (re.++ (re.union (str.to_re "4") (str.to_re "51")) (str.to_re "50")) (re.++ (re.union (str.to_re "3") (re.++ (re.union (str.to_re "4") (str.to_re "51")) (str.to_re "1"))) (re.* (str.to_re "501")) (re.union (str.to_re "4") (str.to_re "5050")))))))) (re.* (re.union (re.++ (re.* (str.to_re "40")) (str.to_re "50") (re.union (str.to_re "1") (str.to_re "500"))) (re.++ (re.union (re.++ (str.to_re "0") (re.union (str.to_re "2") (str.to_re "40")) (str.to_re "0")) (re.++ (re.* (str.to_re "40")) (re.union (str.to_re "1") (str.to_re "30")) (str.to_re "0") (re.union (str.to_re "1") (str.to_re "500")))) (re.* (re.union (str.to_re "2") (re.++ (re.union (re.++ (str.to_re "5") (re.union (str.to_re "3") (str.to_re "50")) (str.to_re "0")) (re.++ (re.union (str.to_re "4") (str.to_re "51")) (re.union (str.to_re "2") (str.to_re "40")))) (str.to_re "0")) (re.++ (re.union (str.to_re "3") (re.++ (re.union (str.to_re "4") (str.to_re "51")) (str.to_re "1")) (re.++ (re.union (str.to_re "52") (re.++ (re.union (str.to_re "4") (str.to_re "51")) (str.to_re "50"))) (str.to_re "0"))) (re.* (str.to_re "40")) (re.union (str.to_re "1") (str.to_re "30"))))) (re.union (str.to_re "3") (re.++ (re.union (str.to_re "4") (str.to_re "51")) (str.to_re "1")) (re.++ (re.union (str.to_re "52") (re.++ (re.union (str.to_re "4") (str.to_re "51")) (str.to_re "50"))) (str.to_re "0"))) (re.* (str.to_re "40")) (str.to_re "5")))) (re.* (re.union (re.++ (re.union (str.to_re "1") (str.to_re "500")) (re.* (str.to_re "40")) (str.to_re "50")) (re.++ (re.union (re.++ (re.union (str.to_re "2") (str.to_re "40")) (str.to_re "0")) (re.++ (re.union (str.to_re "1") (str.to_re "500")) (re.* (str.to_re "40")) (re.union (str.to_re "1") (str.to_re "30")))) (re.* (re.union (str.to_re "2") (re.++ (str.to_re "5") (re.union (str.to_re "3") (str.to_re "50")) (str.to_re "00")) (re.++ (re.union (str.to_re "3") (str.to_re "520")) (re.* (str.to_re "40")) (re.union (str.to_re "1") (str.to_re "30"))))) (re.union (str.to_re "4") (str.to_re "51") (re.++ (re.union (str.to_re "3") (str.to_re "520")) (re.* (str.to_re "40")) (str.to_re "50")))))) (re.* (re.++ (str.to_re "00") (re.* (re.union (str.to_re "2") (re.++ (re.union (str.to_re "4") (str.to_re "51")) (str.to_re "20")) (re.++ (re.union (str.to_re "3") (re.++ (re.union (str.to_re "4") (str.to_re "51")) (str.to_re "1")) (re.++ (re.union (str.to_re "52") (re.++ (re.union (str.to_re "4") (str.to_re "51")) (str.to_re "50"))) (str.to_re "0"))) (re.* (re.union (str.to_re "501") (re.++ (re.union (str.to_re "4") (str.to_re "5050")) (str.to_re "0")))) (re.union (str.to_re "1") (re.++ (re.union (str.to_re "3") (str.to_re "502")) (str.to_re "0")))))) (re.union (re.++ (str.to_re "5") (re.union (str.to_re "3") (str.to_re "50"))) (re.++ (re.union (str.to_re "4") (str.to_re "51")) (str.to_re "4")) (re.++ (re.union (str.to_re "3") (re.++ (re.union (str.to_re "4") (str.to_re "51")) (str.to_re "1")) (re.++ (re.union (str.to_re "52") (re.++ (re.union (str.to_re "4") (str.to_re "51")) (str.to_re "50"))) (str.to_re "0"))) (re.* (re.union (str.to_re "501") (re.++ (re.union (str.to_re "4") (str.to_re "5050")) (str.to_re "0")))) (str.to_re "504"))))) (re.* (re.++ (str.to_re "00") (re.union (re.++ (re.* (re.union (str.to_re "501") (str.to_re "40"))) (str.to_re "505")) (re.++ (re.* (re.union (str.to_re "501") (str.to_re "40"))) (re.union (str.to_re "1") (re.++ (re.union (str.to_re "3") (re.++ (str.to_re "50") (re.union (str.to_re "2") (str.to_re "40")))) (str.to_re "0"))) (re.* (re.union (str.to_re "2") (re.++ (re.union (re.++ (str.to_re "5") (re.union (str.to_re "3") (str.to_re "50")) (str.to_re "0")) (re.++ (re.union (str.to_re "4") (str.to_re "51")) (re.union (str.to_re "2") (str.to_re "40")))) (str.to_re "0")) (re.++ (re.union (str.to_re "3") (re.++ (re.union (str.to_re "4") (str.to_re "51")) (str.to_re "1")) (str.to_re "520")) (re.* (re.union (str.to_re "501") (str.to_re "40"))) (re.union (str.to_re "1") (re.++ (re.union (str.to_re "3") (re.++ (str.to_re "50") (re.union (str.to_re "2") (str.to_re "40")))) (str.to_re "0")))))) (re.union (re.++ (re.union (str.to_re "4") (str.to_re "51")) (str.to_re "5")) (re.++ (re.union (str.to_re "3") (re.++ (re.union (str.to_re "4") (str.to_re "51")) (str.to_re "1")) (str.to_re "520")) (re.* (re.union (str.to_re "501") (str.to_re "40"))) (str.to_re "505"))))))) (re.* (re.++ (re.union (re.++ (re.union (re.++ (re.union (str.to_re "3") (str.to_re "50")) (str.to_re "0")) (re.++ (str.to_re "1") (re.union (str.to_re "2") (str.to_re "40")))) (str.to_re "0")) (re.++ (re.union (str.to_re "11") (re.++ (re.union (str.to_re "2") (str.to_re "150")) (str.to_re "0"))) (re.* (re.union (str.to_re "501") (re.++ (re.union (str.to_re "4") (str.to_re "5050")) (str.to_re "0")))) (re.union (str.to_re "1") (re.++ (re.union (str.to_re "3") (re.++ (str.to_re "50") (re.union (str.to_re "2") (str.to_re "40")))) (str.to_re "0"))))) (re.* (re.union (str.to_re "2") (re.++ (str.to_re "4") (re.union (str.to_re "2") (str.to_re "40")) (str.to_re "0")) (re.++ (re.union (str.to_re "3") (str.to_re "41") (str.to_re "4500")) (re.* (re.union (str.to_re "501") (re.++ (re.union (str.to_re "4") (str.to_re "5050")) (str.to_re "0")))) (re.union (str.to_re "1") (re.++ (re.union (str.to_re "3") (re.++ (str.to_re "50") (re.union (str.to_re "2") (str.to_re "40")))) (str.to_re "0")))))) (str.to_re "5"))) (re.* (re.++ (str.to_re "000") (re.* (re.union (str.to_re "2") (re.++ (re.union (str.to_re "530") (re.++ (re.union (str.to_re "4") (str.to_re "51")) (re.union (str.to_re "2") (str.to_re "40")))) (str.to_re "0")) (re.++ (re.union (str.to_re "3") (re.++ (re.union (str.to_re "4") (str.to_re "51")) (str.to_re "1")) (re.++ (re.union (str.to_re "52") (re.++ (re.union (str.to_re "4") (str.to_re "51")) (str.to_re "50"))) (str.to_re "0"))) (re.* (re.union (str.to_re "501") (re.++ (re.union (str.to_re "4") (str.to_re "5050")) (str.to_re "0")))) (re.union (str.to_re "1") (re.++ (re.union (str.to_re "3") (re.++ (str.to_re "50") (re.union (str.to_re "2") (str.to_re "40")))) (str.to_re "0")))))) (str.to_re "55"))) (re.* (re.union (str.to_re "3") (re.++ (str.to_re "55") (re.union (str.to_re "2") (str.to_re "50")) (str.to_re "0")) (re.++ (str.to_re "5") (re.union (str.to_re "3") (str.to_re "51")) (re.union (str.to_re "1") (str.to_re "40"))) (re.++ (re.union (str.to_re "4") (str.to_re "52") (re.++ (str.to_re "5") (re.union (str.to_re "3") (str.to_re "51")) (str.to_re "50"))) (re.* (re.union (str.to_re "51") (re.++ (re.union (str.to_re "4") (str.to_re "550")) (str.to_re "50")))) (re.union (str.to_re "2") (str.to_re "530") (re.++ (re.union (str.to_re "4") (str.to_re "550")) (re.union (str.to_re "1") (str.to_re "40"))))))) (re.* (re.union (str.to_re "51") (re.++ (re.union (str.to_re "4") (str.to_re "550")) (str.to_re "50")) (re.++ (re.union (str.to_re "2") (str.to_re "530") (re.++ (re.union (str.to_re "4") (str.to_re "550")) (re.union (str.to_re "1") (str.to_re "40")))) (re.* (re.union (str.to_re "3") (re.++ (str.to_re "55") (re.union (str.to_re "2") (str.to_re "50")) (str.to_re "0")) (re.++ (str.to_re "5") (re.union (str.to_re "3") (str.to_re "51")) (re.union (str.to_re "1") (str.to_re "40"))))) (re.union (str.to_re "4") (str.to_re "52") (re.++ (str.to_re "5") (re.union (str.to_re "3") (str.to_re "51")) (str.to_re "50")))))) (re.* (re.union (re.++ (str.to_re "50") (re.* (str.to_re "51")) (re.union (str.to_re "4") (str.to_re "550"))) (re.++ (re.union (str.to_re "1") (str.to_re "40") (re.++ (str.to_re "50") (re.* (str.to_re "51")) (re.union (str.to_re "2") (str.to_re "530")))) (re.* (re.union (str.to_re "3") (re.++ (str.to_re "55") (re.union (str.to_re "2") (str.to_re "50")) (str.to_re "0")) (re.++ (re.union (str.to_re "4") (str.to_re "52")) (re.* (str.to_re "51")) (re.union (str.to_re "2") (str.to_re "530"))))) (re.union (re.++ (str.to_re "5") (re.union (str.to_re "3") (str.to_re "51"))) (re.++ (re.union (str.to_re "4") (str.to_re "52")) (re.* (str.to_re "51")) (re.union (str.to_re "4") (str.to_re "550"))))))) (re.* (re.++ (str.to_re "0") (re.* (re.union (str.to_re "3") (re.++ (str.to_re "5") (re.union (str.to_re "3") (str.to_re "51")) (str.to_re "1")) (re.++ (re.union (str.to_re "4") (str.to_re "52") (re.++ (str.to_re "5") (re.union (str.to_re "3") (str.to_re "51")) (str.to_re "50"))) (re.* (re.union (str.to_re "51") (re.++ (re.union (str.to_re "4") (str.to_re "550")) (str.to_re "50")))) (re.union (str.to_re "2") (re.++ (re.union (str.to_re "4") (str.to_re "550")) (str.to_re "1")))))) (re.union (re.++ (str.to_re "55") (re.union (str.to_re "2") (str.to_re "50"))) (re.++ (str.to_re "5") (re.union (str.to_re "3") (str.to_re "51")) (str.to_re "4")) (re.++ (re.union (str.to_re "4") (str.to_re "52") (re.++ (str.to_re "5") (re.union (str.to_re "3") (str.to_re "51")) (str.to_re "50"))) (re.* (re.union (str.to_re "51") (re.++ (re.union (str.to_re "4") (str.to_re "550")) (str.to_re "50")))) (re.union (str.to_re "53") (re.++ (re.union (str.to_re "4") (str.to_re "550")) (str.to_re "4"))))))) (re.* (re.++ (str.to_re "0") (re.union (re.++ (re.* (str.to_re "51")) (re.union (str.to_re "4") (str.to_re "550")) (str.to_re "5")) (re.++ (re.* (str.to_re "51")) (re.union (str.to_re "2") (str.to_re "530") (re.++ (re.union (str.to_re "4") (str.to_re "550")) (re.union (str.to_re "1") (str.to_re "40")))) (re.* (re.union (str.to_re "3") (re.++ (str.to_re "55") (re.union (str.to_re "2") (str.to_re "50")) (str.to_re "0")) (re.++ (str.to_re "5") (re.union (str.to_re "3") (str.to_re "51")) (re.union (str.to_re "1") (str.to_re "40"))) (re.++ (re.union (str.to_re "4") (str.to_re "52")) (re.* (str.to_re "51")) (re.union (str.to_re "2") (str.to_re "530") (re.++ (re.union (str.to_re "4") (str.to_re "550")) (re.union (str.to_re "1") (str.to_re "40"))))))) (re.union (re.++ (str.to_re "5") (re.union (str.to_re "3") (str.to_re "51")) (str.to_re "5")) (re.++ (re.union (str.to_re "4") (str.to_re "52")) (re.* (str.to_re "51")) (re.union (str.to_re "4") (str.to_re "550")) (str.to_re "5"))))))) (re.* (re.union (re.++ (re.union (str.to_re "1") (str.to_re "5050")) (re.* (str.to_re "450")) (str.to_re "5")) (re.++ (re.union (str.to_re "30") (re.++ (str.to_re "50") (re.union (str.to_re "1") (str.to_re "40"))) (re.++ (re.union (str.to_re "1") (str.to_re "5050")) (re.* (str.to_re "450")) (re.union (str.to_re "2") (re.++ (str.to_re "4") (re.union (str.to_re "1") (str.to_re "40")))))) (re.* (re.union (str.to_re "3") (re.++ (str.to_re "55") (re.union (str.to_re "2") (str.to_re "50")) (str.to_re "0")) (re.++ (str.to_re "5") (re.union (str.to_re "3") (str.to_re "51")) (re.union (str.to_re "1") (str.to_re "40"))) (re.++ (re.union (str.to_re "4") (str.to_re "52") (re.++ (str.to_re "5") (re.union (str.to_re "3") (str.to_re "51")) (str.to_re "50"))) (re.* (str.to_re "450")) (re.union (str.to_re "2") (re.++ (str.to_re "4") (re.union (str.to_re "1") (str.to_re "40"))))))) (re.union (str.to_re "4") (str.to_re "52") (re.++ (str.to_re "5") (re.union (str.to_re "3") (str.to_re "51")) (str.to_re "50"))) (re.* (str.to_re "450")) (str.to_re "5")))) (re.* (re.union (re.++ (str.to_re "050") (re.* (re.union (str.to_re "51") (str.to_re "450"))) (str.to_re "55")) (re.++ (re.* (re.union (str.to_re "3") (re.++ (str.to_re "55") (re.union (str.to_re "2") (str.to_re "50")) (str.to_re "0")) (re.++ (str.to_re "5") (re.union (str.to_re "3") (str.to_re "51")) (re.union (str.to_re "1") (str.to_re "40"))) (re.++ (re.union (str.to_re "4") (str.to_re "52") (re.++ (str.to_re "5") (re.union (str.to_re "3") (str.to_re "51")) (str.to_re "50"))) (re.* (re.union (str.to_re "51") (str.to_re "450"))) (re.union (str.to_re "2") (str.to_re "530") (re.++ (str.to_re "4") (re.union (str.to_re "1") (str.to_re "40"))))))) (re.union (str.to_re "4") (str.to_re "52") (re.++ (str.to_re "5") (re.union (str.to_re "3") (str.to_re "51")) (str.to_re "50"))) (re.* (re.union (str.to_re "51") (str.to_re "450"))) (str.to_re "550") (re.union (re.++ (str.to_re "50") (re.* (re.union (str.to_re "51") (str.to_re "450"))) (re.union (str.to_re "2") (str.to_re "530") (re.++ (str.to_re "4") (re.union (str.to_re "1") (str.to_re "40"))))) (str.to_re "1") (str.to_re "40"))))) (re.* (re.++ (re.union (re.++ (str.to_re "5") (re.union (str.to_re "2") (str.to_re "50")) (str.to_re "0")) (re.++ (re.union (str.to_re "3") (str.to_re "51")) (re.union (str.to_re "1") (str.to_re "40"))) (re.++ (re.union (str.to_re "2") (re.++ (re.union (str.to_re "3") (str.to_re "51")) (str.to_re "50"))) (re.* (re.union (str.to_re "51") (re.++ (re.union (str.to_re "4") (str.to_re "550")) (str.to_re "50")))) (re.union (str.to_re "2") (str.to_re "530") (re.++ (re.union (str.to_re "4") (str.to_re "550")) (re.union (str.to_re "1") (str.to_re "40")))))) (re.* (re.union (str.to_re "3") (re.++ (str.to_re "4") (re.* (re.union (str.to_re "51") (re.++ (re.union (str.to_re "4") (str.to_re "550")) (str.to_re "50")))) (re.union (str.to_re "2") (str.to_re "530") (re.++ (re.union (str.to_re "4") (str.to_re "550")) (re.union (str.to_re "1") (str.to_re "40"))))))) (str.to_re "5"))) (re.* (re.++ (re.union (re.++ (re.union (str.to_re "2") (str.to_re "50")) (str.to_re "0")) (re.++ (str.to_re "1") (re.union (str.to_re "1") (str.to_re "40"))) (re.++ (str.to_re "150") (re.* (re.union (str.to_re "51") (re.++ (re.union (str.to_re "4") (str.to_re "550")) (str.to_re "50")))) (re.union (str.to_re "2") (str.to_re "530") (re.++ (re.union (str.to_re "4") (str.to_re "550")) (re.union (str.to_re "1") (str.to_re "40")))))) (re.* (re.union (str.to_re "3") (re.++ (str.to_re "53") (re.union (str.to_re "1") (str.to_re "40"))) (re.++ (re.union (str.to_re "4") (str.to_re "52") (str.to_re "5350")) (re.* (re.union (str.to_re "51") (re.++ (re.union (str.to_re "4") (str.to_re "550")) (str.to_re "50")))) (re.union (str.to_re "2") (str.to_re "530") (re.++ (re.union (str.to_re "4") (str.to_re "550")) (re.union (str.to_re "1") (str.to_re "40"))))))) (str.to_re "55"))) (re.* (re.++ (str.to_re "00") (re.* (re.union (str.to_re "3") (str.to_re "5520") (re.++ (str.to_re "5") (re.union (str.to_re "3") (str.to_re "51")) (re.union (str.to_re "1") (str.to_re "40"))) (re.++ (re.union (str.to_re "4") (str.to_re "52") (re.++ (str.to_re "5") (re.union (str.to_re "3") (str.to_re "51")) (str.to_re "50"))) (re.* (re.union (str.to_re "51") (re.++ (re.union (str.to_re "4") (str.to_re "550")) (str.to_re "50")))) (re.union (str.to_re "2") (str.to_re "530") (re.++ (re.union (str.to_re "4") (str.to_re "550")) (re.union (str.to_re "1") (str.to_re "40"))))))) (str.to_re "555"))) (re.* (re.union (str.to_re "4") (re.++ (str.to_re "5") (re.union (str.to_re "3") (re.++ (str.to_re "5") (re.union (str.to_re "2") (re.++ (str.to_re "5") (re.union (str.to_re "1") (str.to_re "50"))))))))) (re.* (re.++ (re.union (str.to_re "3") (re.++ (str.to_re "5") (re.union (str.to_re "2") (re.++ (str.to_re "5") (re.union (str.to_re "1") (str.to_re "50")))))) (re.* (str.to_re "4")) (str.to_re "5"))) (re.* (re.++ (re.union (str.to_re "2") (re.++ (str.to_re "5") (re.union (str.to_re "1") (str.to_re "50")))) (re.* (re.union (str.to_re "4") (str.to_re "53"))) (str.to_re "55"))) (re.* (re.++ (re.union (str.to_re "1") (str.to_re "50")) (re.* (re.union (str.to_re "4") (re.++ (str.to_re "5") (re.union (str.to_re "3") (str.to_re "52"))))) (str.to_re "555"))) (re.* (re.++ (str.to_re "0") (re.* (re.union (str.to_re "4") (re.++ (str.to_re "5") (re.union (str.to_re "3") (re.++ (str.to_re "5") (re.union (str.to_re "2") (str.to_re "51"))))))) (str.to_re "5555"))) (re.* (str.to_re "5"))) (str.to_re "\u{a}")))))
(assert (str.in_re X (str.to_re "X-Mailer:\u{13}wlpgskmv/lwzo.qv#Subject:Activity\u{a}")))
(assert (str.in_re X (str.to_re "\u{a}\u{d}   replacement string---->\u{a}\u{a}")))
(check-sat)

(exit)
